NAME : in_house_8_12
TYPE : TSP
DIMENSION : 8
EDGE_WEIGHT_TYPE : EXPLICIT
EDGE_WEIGHT_FORMAT : UPPER_ROW
COMMENT : INVERSION_SHIFT=8
EDGE_WEIGHT_SECTION
52
39
28
49
10
48
6
9
56
58
5
36
47
55
39
8
20
6
29
16
29
51
37
38
62
7
56
55
